25	3	3
5	7	8	66	72	86	
0	0	0	0	1	7	8	1	9	6	23	2	3	4	5	6	7	8	9	10	11	12	13	14	15	16	17	18	19	20	21	22	23	24
3	4	2	1	4	10	5	4	9	3	1	6
3	2	2	2	9	6	7	6	3	4	3	11	8	14
3	3	2	1	1	9	3	8	3	5	1	11
1	1	2	3	2	4	3	5	8	3	1	25
3	1	1	2	1	9	10	9	10	9	1	25
4	2	2	1	4	3	9	8	7	7	1	25
3	3	1	3	1	5	2	7	1	5	1	13
3	1	2	3	1	2	4	3	9	6	1	21
4	4	1	1	8	10	10	1	5	8	1	25
2	2	1	1	3	6	7	3	4	6	1	25
4	2	2	1	2	8	8	10	6	5	1	20
6	3	1	3	7	6	9	9	2	10	1	14
5	5	2	1	3	3	1	6	5	10	1	20
2	3	2	1	2	3	9	1	3	4	1	25
4	2	1	3	8	6	10	4	8	4	1	25
3	3	1	2	10	10	1	8	9	7	1	25
2	4	1	1	2	6	2	1	4	4	3	22	20	21
3	2	1	1	10	7	6	1	2	1	1	25
1	4	2	3	10	3	3	9	4	5	1	25
3	3	2	3	3	2	10	2	5	8	1	25
4	1	2	3	6	5	7	6	2	6	1	25
5	4	2	3	2	3	1	4	3	5	1	25
3	5	2	1	7	3	1	3	4	3	1	25
0	0	0	0	3	3	6	6	1	9	0
